
Gurobi 6.5.2 (linux64) logging started Sun Sep 18 18:45:26 2016


Gurobi 6.5.2 (linux64) logging started Sun Sep 18 18:45:26 2016

Optimize a model with 201 rows, 2575 columns and 5153 nonzeros
Coefficient statistics:
  Matrix range    [1e+00, 2e+00]
  Objective range [1e+00, 1e+02]
  Bounds range    [1e+00, 1e+00]
  RHS range       [1e+00, 1e+00]
Presolve removed 101 rows and 99 columns
Presolve time: 0.01s
Presolved: 100 rows, 2476 columns, 4951 nonzeros
Variable types: 0 continuous, 2476 integer (2476 binary)

Root relaxation: objective 1.066500e+03, 143 iterations, 0.00 seconds

    Nodes    |    Current Node    |     Objective Bounds      |     Work
 Expl Unexpl |  Obj  Depth IntInf | Incumbent    BestBd   Gap | It/Node Time

     0     0 1066.50000    0   14          - 1066.50000      -     -    0s
     0     0 1070.50000    0   24          - 1070.50000      -     -    0s
     0     0 1071.00000    0   26          - 1071.00000      -     -    0s
     0     0 1072.93333    0   25          - 1072.93333      -     -    0s
     0     0 1072.93333    0   25          - 1072.93333      -     -    0s
     0     2 1072.93333    0   37          - 1072.93333      -     -    0s
  2605  1785 1090.00000  135    4          - 1078.00000      -   7.2    5s
  6889  4293 1105.00000   87    -          - 1078.41176      -   6.6   10s

Cutting planes:
  Gomory: 6
  Flow cover: 4
  Zero half: 12
  Lazy constraints: 1029

Explored 7018 nodes (46728 simplex iterations) in 10.02 seconds
Thread count was 8 (of 8 available processors)

Time limit reached
Best objective -, best bound 1.079000000000e+03, gap -
